WARNING: for repeatability, setting FPU to use double precision
============================[ Problem Statistics ]=============================
|                                                                             |
|  Number of variables:         27899                                         |
|  Number of clauses:          344212                                         |
|  Parse time:                   0.15 s                                       |
|  Eliminated clauses:           0.03 Mb                                      |
|  Simplification time:          0.18 s                                       |
|                                                                             |
============================[ Search Statistics ]==============================
| Conflicts |          ORIGINAL         |          LEARNT          | Progress |
|           |    Vars  Clauses Literals |    Limit  Clauses Lit/Cl |          |
===============================================================================
|       100 |    3307    40221   113263 |    14747      100     37 | 83.383 % |
|       250 |    3307    40221   113263 |    16222      250     30 | 83.383 % |
|       475 |    3307    40221   113263 |    17844      475     28 | 83.383 % |
|       812 |    3307    40221   113263 |    19629      812     38 | 83.383 % |
|      1318 |    3307    40221   113263 |    21592     1318     39 | 83.383 % |
|      2077 |    3307    40221   113263 |    23751     2077     50 | 83.383 % |
|      3216 |    3307    40221   113263 |    26126     3216     56 | 83.383 % |
|      4924 |    3307    40221   113263 |    28739     4924     60 | 83.383 % |
|      7486 |    3307    40221   113263 |    31613     7486     70 | 83.383 % |
===============================================================================
restarts              : 46
conflicts             : 10593          (17859 /sec)
decisions             : 65313          (0.00 % random) (110112 /sec)
propagations          : 932197         (1571596 /sec)
conflict literals     : 774439         (4.76 % deleted)
Memory used           : 44.00 MB
CPU time              : 0.593153 s

SATISFIABLE
WARNING: for repeatability, setting FPU to use double precision
============================[ Problem Statistics ]=============================
|                                                                             |
|  Number of variables:         27899                                         |
|  Number of clauses:          344212                                         |
|  Parse time:                   0.08 s                                       |
|  Eliminated clauses:           0.03 Mb                                      |
|  Simplification time:          0.12 s                                       |
|                                                                             |
============================[ Search Statistics ]==============================
| Conflicts |          ORIGINAL         |          LEARNT          | Progress |
|           |    Vars  Clauses Literals |    Limit  Clauses Lit/Cl |          |
===============================================================================
|       100 |    3307    40221   113263 |    14747      100     37 | 83.383 % |
|       250 |    3307    40221   113263 |    16222      250     30 | 83.383 % |
|       475 |    3307    40221   113263 |    17844      475     28 | 83.383 % |
|       812 |    3307    40221   113263 |    19629      812     38 | 83.383 % |
|      1318 |    3307    40221   113263 |    21592     1318     39 | 83.383 % |
|      2077 |    3307    40221   113263 |    23751     2077     50 | 83.383 % |
|      3216 |    3307    40221   113263 |    26126     3216     56 | 83.383 % |
|      4924 |    3307    40221   113263 |    28739     4924     60 | 83.383 % |
|      7486 |    3307    40221   113263 |    31613     7486     70 | 83.383 % |
===============================================================================
restarts              : 46
conflicts             : 10593          (27250 /sec)
decisions             : 65313          (0.00 % random) (168018 /sec)
propagations          : 932197         (2398076 /sec)
conflict literals     : 774439         (4.76 % deleted)
Memory used           : 44.00 MB
CPU time              : 0.388727 s

SATISFIABLE
